\ Model Staff Scheduling Problem with Breaks
\ LP format - for model browsing. Use MPS format to capture full model detail.
Minimize
  x[0,0] + x[0,1] + x[0,2] + x[0,3] + x[1,0] + x[1,1] + x[1,2] + x[1,3]
   + x[2,0] + x[2,1] + x[2,2] + x[2,3] + x[3,0] + x[3,1] + x[3,2] + x[3,3]
   + x[4,0] + x[4,1] + x[4,2] + x[4,3] + x[5,0] + x[5,1] + x[5,2] + x[5,3]
   + x[6,0] + x[6,1] + x[6,2] + x[6,3] + x[7,0] + x[7,1] + x[7,2] + x[7,3]
   + x[8,0] + x[8,1] + x[8,2] + x[8,3] + x[9,0] + x[9,1] + x[9,2] + x[9,3]
Subject To
 R0: x[0,0] <= 98.76707350281956
 R1: x[0,1] <= 98.76707350281956
 R2: x[0,2] <= 98.76707350281956
 R3: x[0,3] <= 98.76707350281956
 R4: x[1,0] <= 98.76707350281956
 R5: x[1,1] <= 98.76707350281956
 R6: x[1,2] <= 98.76707350281956
 R7: x[1,3] <= 98.76707350281956
 R8: x[2,0] <= 98.76707350281956
 R9: x[2,1] <= 98.76707350281956
 R10: x[2,2] <= 98.76707350281956
 R11: x[2,3] <= 98.76707350281956
 R12: x[3,0] <= 98.76707350281956
 R13: x[3,1] <= 98.76707350281956
 R14: x[3,2] <= 98.76707350281956
 R15: x[3,3] <= 98.76707350281956
 R16: x[4,0] <= 98.76707350281956
 R17: x[4,1] <= 98.76707350281956
 R18: x[4,2] <= 98.76707350281956
 R19: x[4,3] <= 98.76707350281956
 R20: x[5,0] <= 98.76707350281956
 R21: x[5,1] <= 98.76707350281956
 R22: x[5,2] <= 98.76707350281956
 R23: x[5,3] <= 98.76707350281956
 R24: x[6,0] <= 98.76707350281956
 R25: x[6,1] <= 98.76707350281956
 R26: x[6,2] <= 98.76707350281956
 R27: x[6,3] <= 98.76707350281956
 R28: x[7,0] <= 98.76707350281956
 R29: x[7,1] <= 98.76707350281956
 R30: x[7,2] <= 98.76707350281956
 R31: x[7,3] <= 98.76707350281956
 R32: x[8,0] <= 98.76707350281956
 R33: x[8,1] <= 98.76707350281956
 R34: x[8,2] <= 98.76707350281956
 R35: x[8,3] <= 98.76707350281956
 R36: x[9,0] <= 98.76707350281956
 R37: x[9,1] <= 98.76707350281956
 R38: x[9,2] <= 98.76707350281956
 R39: x[9,3] <= 98.76707350281956
 R40: x[0,0] + x[0,1] + x[0,2] + x[0,3] + x[1,0] + x[1,1] + x[1,2] + x[1,3]
   + x[2,0] + x[2,1] + x[2,2] + x[2,3] + x[3,0] + x[3,1] + x[3,2] + x[3,3]
   + x[4,0] + x[4,1] + x[4,2] + x[4,3] + x[5,0] + x[5,1] + x[5,2] + x[5,3]
   + x[6,0] + x[6,1] + x[6,2] + x[6,3] + x[7,0] + x[7,1] + x[7,2] + x[7,3]
   + x[8,0] + x[8,1] + x[8,2] + x[8,3] + x[9,0] + x[9,1] + x[9,2] + x[9,3]
   >= 167.361847190914
Bounds
End
